
Gurobi 9.5.0 (win64) logging started Sat Mar 26 13:55:54 2022

Set parameter LogFile to value "../results/logs/log_2022_03_26_13_55.csv_3_2.log"
Gurobi Optimizer version 9.5.0 build v9.5.0rc5 (win64)
Thread count: 6 physical cores, 12 logical processors, using up to 12 threads
Optimize a model with 9 rows, 8 columns and 28 nonzeros
Model fingerprint: 0xc026c146
Variable types: 0 continuous, 8 integer (8 binary)
Coefficient statistics:
  Matrix range     [1e+00, 3e+00]
  Objective range  [1e+00, 1e+00]
  Bounds range     [1e+00, 1e+00]
  RHS range        [1e+00, 2e+00]
Found heuristic solution: objective -0.0000000
Presolve removed 9 rows and 8 columns
Presolve time: 0.00s
Presolve: All rows and columns removed

Explored 0 nodes (0 simplex iterations) in 0.01 seconds (0.00 work units)
Thread count was 1 (of 12 available processors)

Solution count 1: -0 
No other solutions better than -0

Optimal solution found (tolerance 1.00e-04)
Best objective -0.000000000000e+00, best bound -0.000000000000e+00, gap 0.0000%

Gurobi 9.5.0 (win64) logging started Sat Mar 26 13:55:54 2022

Set parameter LogFile to value "../results/logs/log_2022_03_26_13_55.csv_3_2.log"
